min: c;

c = 3.58047097125979 * u5_t4_h2 + 3.58047097125979 * u5_t7_h2 + 3.28684477958535 * u5_t4_h3 + 3.28684477958535 * u5_t7_h3 + 2.6772562890454 * u5_t1_h4 + 2.6772562890454 * u5_t3_h4 + 2.6772562890454 * u5_t4_h4 + 2.6772562890454 * u5_t7_h4 + 3.98064705718393 * u5_t1_h5 + 3.98064705718393 * u5_t3_h5 + 3.98064705718393 * u5_t4_h5 + 3.98064705718393 * u5_t7_h5 + 3.55781085943513 * u5_t1_h6 + 3.55781085943513 * u5_t3_h6 + 3.55781085943513 * u5_t4_h6 + 3.55781085943513 * u5_t6_h6 + 3.55781085943513 * u5_t7_h6 + 4.00904642084635 * u5_t1_h7 + 4.00904642084635 * u5_t3_h7 + 4.00904642084635 * u5_t4_h7 + 4.00904642084635 * u5_t6_h7 + 5.01477268790558 * u5_t1_h8 + 5.01477268790558 * u5_t3_h8 + 5.01477268790558 * u5_t4_h8 + 5.01477268790558 * u5_t6_h8 + 5.36499598339738 * u5_t1_h9 + 5.36499598339738 * u5_t3_h9 + 5.36499598339738 * u5_t4_h9 + 5.36499598339738 * u5_t6_h9 + 5.87363024427476 * u5_t1_h10 + 5.87363024427476 * u5_t3_h10 + 5.87363024427476 * u5_t4_h10 + 5.87363024427476 * u5_t6_h10 + 4.08224456310929 * u5_t1_h11 + 4.08224456310929 * u5_t3_h11 + 4.08224456310929 * u5_t4_h11 + 4.08224456310929 * u5_t6_h11 + 5.71706380565975 * u5_t1_h12 + 5.71706380565975 * u5_t3_h12 + 5.71706380565975 * u5_t4_h12 + 5.71706380565975 * u5_t6_h12 + 4.73389422099893 * u5_t1_h13 + 4.73389422099893 * u5_t3_h13 + 4.73389422099893 * u5_t4_h13 + 4.73389422099893 * u5_t6_h13 + 4.73389422099893 * u5_t8_h13 + 5.27998651655862 * u5_t1_h14 + 5.27998651655862 * u5_t3_h14 + 5.27998651655862 * u5_t4_h14 + 5.27998651655862 * u5_t6_h14 + 5.27998651655862 * u5_t8_h14 + 6.22798789565585 * u5_t1_h15 + 6.22798789565585 * u5_t3_h15 + 6.22798789565585 * u5_t4_h15 + 6.22798789565585 * u5_t6_h15 + 6.22798789565585 * u5_t8_h15 + 6.22798789565585 * u5_t9_h15 + 5.76356030384644 * u5_t1_h16 + 5.76356030384644 * u5_t3_h16 + 5.76356030384644 * u5_t4_h16 + 5.76356030384644 * u5_t5_h16 + 5.76356030384644 * u5_t6_h16 + 5.76356030384644 * u5_t8_h16 + 5.76356030384644 * u5_t9_h16 + 6.78671338852273 * u5_t1_h17 + 6.78671338852273 * u5_t5_h17 + 6.78671338852273 * u5_t6_h17 + 6.78671338852273 * u5_t8_h17 + 6.78671338852273 * u5_t9_h17 + 6.78671338852273 * u5_t10_h17 + 6.45865333731795 * u5_t1_h18 + 6.45865333731795 * u5_t2_h18 + 6.45865333731795 * u5_t5_h18 + 6.45865333731795 * u5_t6_h18 + 6.45865333731795 * u5_t9_h18 + 6.45865333731795 * u5_t10_h18 + 5.09095246759086 * u5_t1_h19 + 5.09095246759086 * u5_t2_h19 + 5.09095246759086 * u5_t5_h19 + 5.09095246759086 * u5_t9_h19 + 5.09095246759086 * u5_t10_h19 + 5.42523258743825 * u5_t1_h20 + 5.42523258743825 * u5_t2_h20 + 5.42523258743825 * u5_t5_h20 + 5.42523258743825 * u5_t9_h20 + 5.42523258743825 * u5_t10_h20 + 5.70714813195008 * u5_t2_h21 + 5.70714813195008 * u5_t5_h21 + 5.70714813195008 * u5_t9_h21 + 5.70714813195008 * u5_t10_h21 + 5.79052897724716 * u5_t2_h22 + 5.79052897724716 * u5_t5_h22 + 5.79052897724716 * u5_t9_h22 + 5.79052897724716 * u5_t10_h22 + 5.27022164154772 * u5_t5_h23 + 5.27022164154772 * u5_t9_h23 + 5.27022164154772 * u5_t10_h23;
0 <= u5_t1_h4 <= 1;
0 <= u5_t1_h5 <= 1;
0 <= u5_t1_h6 <= 1;
0 <= u5_t1_h7 <= 1;
0 <= u5_t1_h8 <= 1;
0 <= u5_t1_h9 <= 1;
0 <= u5_t1_h10 <= 1;
0 <= u5_t1_h11 <= 1;
0 <= u5_t1_h12 <= 1;
0 <= u5_t1_h13 <= 1;
0 <= u5_t1_h14 <= 1;
0 <= u5_t1_h15 <= 1;
0 <= u5_t1_h16 <= 1;
0 <= u5_t1_h17 <= 1;
0 <= u5_t1_h18 <= 1;
0 <= u5_t1_h19 <= 1;
0 <= u5_t1_h20 <= 1;
u5_t1_h4 + u5_t1_h5 + u5_t1_h6 + u5_t1_h7 + u5_t1_h8 + u5_t1_h9 + u5_t1_h10 + u5_t1_h11 + u5_t1_h12 + u5_t1_h13 + u5_t1_h14 + u5_t1_h15 + u5_t1_h16 + u5_t1_h17 + u5_t1_h18 + u5_t1_h19 + u5_t1_h20 = 1;
0 <= u5_t2_h18 <= 1;
0 <= u5_t2_h19 <= 1;
0 <= u5_t2_h20 <= 1;
0 <= u5_t2_h21 <= 1;
0 <= u5_t2_h22 <= 1;
u5_t2_h18 + u5_t2_h19 + u5_t2_h20 + u5_t2_h21 + u5_t2_h22 = 3;
0 <= u5_t3_h4 <= 1;
0 <= u5_t3_h5 <= 1;
0 <= u5_t3_h6 <= 1;
0 <= u5_t3_h7 <= 1;
0 <= u5_t3_h8 <= 1;
0 <= u5_t3_h9 <= 1;
0 <= u5_t3_h10 <= 1;
0 <= u5_t3_h11 <= 1;
0 <= u5_t3_h12 <= 1;
0 <= u5_t3_h13 <= 1;
0 <= u5_t3_h14 <= 1;
0 <= u5_t3_h15 <= 1;
0 <= u5_t3_h16 <= 1;
u5_t3_h4 + u5_t3_h5 + u5_t3_h6 + u5_t3_h7 + u5_t3_h8 + u5_t3_h9 + u5_t3_h10 + u5_t3_h11 + u5_t3_h12 + u5_t3_h13 + u5_t3_h14 + u5_t3_h15 + u5_t3_h16 = 1;
0 <= u5_t4_h2 <= 1;
0 <= u5_t4_h3 <= 1;
0 <= u5_t4_h4 <= 1;
0 <= u5_t4_h5 <= 1;
0 <= u5_t4_h6 <= 1;
0 <= u5_t4_h7 <= 1;
0 <= u5_t4_h8 <= 1;
0 <= u5_t4_h9 <= 1;
0 <= u5_t4_h10 <= 1;
0 <= u5_t4_h11 <= 1;
0 <= u5_t4_h12 <= 1;
0 <= u5_t4_h13 <= 1;
0 <= u5_t4_h14 <= 1;
0 <= u5_t4_h15 <= 1;
0 <= u5_t4_h16 <= 1;
u5_t4_h2 + u5_t4_h3 + u5_t4_h4 + u5_t4_h5 + u5_t4_h6 + u5_t4_h7 + u5_t4_h8 + u5_t4_h9 + u5_t4_h10 + u5_t4_h11 + u5_t4_h12 + u5_t4_h13 + u5_t4_h14 + u5_t4_h15 + u5_t4_h16 = 3;
0 <= u5_t5_h16 <= 1;
0 <= u5_t5_h17 <= 1;
0 <= u5_t5_h18 <= 1;
0 <= u5_t5_h19 <= 1;
0 <= u5_t5_h20 <= 1;
0 <= u5_t5_h21 <= 1;
0 <= u5_t5_h22 <= 1;
0 <= u5_t5_h23 <= 1;
u5_t5_h16 + u5_t5_h17 + u5_t5_h18 + u5_t5_h19 + u5_t5_h20 + u5_t5_h21 + u5_t5_h22 + u5_t5_h23 = 2;
0 <= u5_t6_h6 <= 1;
0 <= u5_t6_h7 <= 1;
0 <= u5_t6_h8 <= 1;
0 <= u5_t6_h9 <= 1;
0 <= u5_t6_h10 <= 1;
0 <= u5_t6_h11 <= 1;
0 <= u5_t6_h12 <= 1;
0 <= u5_t6_h13 <= 1;
0 <= u5_t6_h14 <= 1;
0 <= u5_t6_h15 <= 1;
0 <= u5_t6_h16 <= 1;
0 <= u5_t6_h17 <= 1;
0 <= u5_t6_h18 <= 1;
u5_t6_h6 + u5_t6_h7 + u5_t6_h8 + u5_t6_h9 + u5_t6_h10 + u5_t6_h11 + u5_t6_h12 + u5_t6_h13 + u5_t6_h14 + u5_t6_h15 + u5_t6_h16 + u5_t6_h17 + u5_t6_h18 = 2;
0 <= u5_t7_h2 <= 1;
0 <= u5_t7_h3 <= 1;
0 <= u5_t7_h4 <= 1;
0 <= u5_t7_h5 <= 1;
0 <= u5_t7_h6 <= 1;
u5_t7_h2 + u5_t7_h3 + u5_t7_h4 + u5_t7_h5 + u5_t7_h6 = 1;
0 <= u5_t8_h13 <= 1;
0 <= u5_t8_h14 <= 1;
0 <= u5_t8_h15 <= 1;
0 <= u5_t8_h16 <= 1;
0 <= u5_t8_h17 <= 1;
u5_t8_h13 + u5_t8_h14 + u5_t8_h15 + u5_t8_h16 + u5_t8_h17 = 3;
0 <= u5_t9_h15 <= 1;
0 <= u5_t9_h16 <= 1;
0 <= u5_t9_h17 <= 1;
0 <= u5_t9_h18 <= 1;
0 <= u5_t9_h19 <= 1;
0 <= u5_t9_h20 <= 1;
0 <= u5_t9_h21 <= 1;
0 <= u5_t9_h22 <= 1;
0 <= u5_t9_h23 <= 1;
u5_t9_h15 + u5_t9_h16 + u5_t9_h17 + u5_t9_h18 + u5_t9_h19 + u5_t9_h20 + u5_t9_h21 + u5_t9_h22 + u5_t9_h23 = 1;
0 <= u5_t10_h17 <= 1;
0 <= u5_t10_h18 <= 1;
0 <= u5_t10_h19 <= 1;
0 <= u5_t10_h20 <= 1;
0 <= u5_t10_h21 <= 1;
0 <= u5_t10_h22 <= 1;
0 <= u5_t10_h23 <= 1;
u5_t10_h17 + u5_t10_h18 + u5_t10_h19 + u5_t10_h20 + u5_t10_h21 + u5_t10_h22 + u5_t10_h23 = 1;
